p cnf 20 20
-4 17 19 0
8 -11 9 0
11 -10 18 0
-9 4 -19 0
-4 -3 5 0
15 -16 1 0
-7 13 -4 0
-12 -1 -10 0
11 -13 2 0
6 1 -4 0
9 -10 13 0
-14 -16 5 0
-13 -17 18 0
-17 5 -18 0
16 -15 8 0
6 20 -13 0
-20 16 -1 0
-15 -7 -1 0
11 3 10 0
20 -13 8 0
